1992939
94,65,3,91,78,50,24,77,93,83,80,37,75,36,0,73,59,61,62,71,48,12,82,87,96,84,35,60,81,86,79,98,49,90,52,41,7,88,14,15,13,47,67,43,5,17,68,40,76,55,56,46,6,72,39,28,58,11,89,33,70,18,51,53,97,22,64,57,63,1,2,4,34,66,26,27,45,10,21,42,25,16,23,38,85,44,8,31,69,20,19,95,29,9,74,92,54,30,32
